1641193200
1641224760
1641972600
1642001940
1642143600
1642404600
1641367800
1641398400
1642174200
1642429193
1642435260
1642435196
1642577400
1642608060
1642750200
1642780920
1643009266
1643040360
1643182200
1643212800
1643354940
1643383860
